MONKEY = {Abby,Bell,Cam,Don,Eddy,Fay};
coop = [| 0,  1,  3,  4, -2,  4
        | 1,  0, -2,  3, -1,  3
        | 3, -2,  0, -5,  1,  3
        | 4,  3, -5,  0,  2, -3 
        |-2, -1,  1,  2,  0, -2
        | 4,  3,  3, -3, -2,  0 |];
